(set-logic BV)

(synth-fun deobfucated ( (a (BitVec 64))  (b (BitVec 64))  ) (BitVec 64)
	(
		(Start (BitVec 64)
			(
				(bvnot Start)
				(bvxor Start Start)
				(bvand Start Start)
				(bvor Start Start)
				(bvneg Start)
				(bvadd Start Start)
				(bvmul Start Start)
				(bvsub Start Start)
				a b
			)
		)
	)
)

(constraint (= (deobfucated #x0000000032394754 #x0000000034c88070) #xffffffffcff7ffb0))
(constraint (= (deobfucated #x000000000e9e6e91 #x0000000007a133e9) #xfffffffff97fdd7f))
(constraint (= (deobfucated #x0000000025a5a164 #x0000000000846717) #xffffffffff7bdefc))
(constraint (= (deobfucated #x0000000003f2999b #x0000000005013340) #xfffffffffeffef00))
(constraint (= (deobfucated #x000000002c850793 #x00000000074cca5c) #xfffffffffbfbfdf0))
(constraint (= (deobfucated #x00000000074bc590 #x000000002381a166) #xfffffffffcfe7f00))
(constraint (= (deobfucated #x000000002f17021c #x000000000700e637) #xfffffffff8fffdec))
(constraint (= (deobfucated #x0000000029412ee3 #x000000002a2e4a24) #xffffffffd7fff5e0))
(constraint (= (deobfucated #x000000002098e82f #x0000000033618eeb) #xffffffffdfff77d5))
(constraint (= (deobfucated #x000000001d0d3e79 #x000000001b9ee776) #xffffffffe6f3d990))
(constraint (= (deobfucated #x000000002bd73409 #x000000001bad4885) #xfffffffff47affff))
(constraint (= (deobfucated #x0000000016b96256 #x0000000036cef156) #xffffffffe9779faa))
(constraint (= (deobfucated #x000000002d092ed7 #x0000000022824165) #xffffffffdfffffbb))
(constraint (= (deobfucated #x000000002d506885 #x000000001ea155d1) #xfffffffff3ffbf7f))
(constraint (= (deobfucated #x000000001e705dff #x000000001a07f6d8) #xffffffffe5ffab28))
(constraint (= (deobfucated #x000000002e0b9eda #x000000000d90c6a7) #xfffffffff3ff797e))
(constraint (= (deobfucated #x0000000038358b27 #x000000001e992ed4) #xffffffffe7eef5fc))
(constraint (= (deobfucated #x0000000001ede24c #x0000000017b02142) #xfffffffffe5fdfc0))
(constraint (= (deobfucated #x000000000215228f #x0000000003047e0a) #xfffffffffdfbddf6))
(constraint (= (deobfucated #x0000000011e4ad4f #x00000000224231f9) #xffffffffffbfdeb7))
(check-synth)